(declare-fun temp8008_2 () (_ BitVec 64))
(declare-fun temp8008_1 () (_ BitVec 64))
(declare-fun temp8008_3 () (_ BitVec 64))
(declare-fun temp8008_4 () (_ BitVec 64))
(declare-fun var590537 () (_ BitVec 64))
(declare-fun k!0 () Bool)
(declare-fun ARGNAME_group_NAMEEND () (_ BitVec 64))
(declare-fun ARGNAME_C_NAMEEND () (_ BitVec 64))
(declare-fun var590568 () (_ BitVec 64))
(declare-fun temp8008_5 () (_ BitVec 64))
(declare-fun var590569 () (_ BitVec 64))
(declare-fun temp8008_6 () (_ BitVec 64))
(declare-fun temp8008_7 () (_ BitVec 64))
(declare-fun ARGNAME_weight_NAMEEND_DIM () (_ BitVec 64))
(declare-fun var590610 () (_ BitVec 64))
(declare-fun temp8008_8 () (_ BitVec 64))
(declare-fun ARGNAME_weight_NAMEEND_NUMELEMENT () (_ BitVec 64))
(declare-fun var590615 () (_ BitVec 64))
(declare-fun temp8008_9 () (_ BitVec 64))
(declare-fun temp8008_10 () (_ BitVec 64))
(declare-fun var919503 () (_ BitVec 64))
(declare-fun temp8008_11 () (_ BitVec 64))
(declare-fun var1184882 () (_ BitVec 64))
(declare-fun temp8008_12 () (_ BitVec 64))
(declare-fun var1246564 () (_ BitVec 64))
(declare-fun temp8008_13 () (_ BitVec 64))
(declare-fun temp8008_14 () (_ BitVec 64))
(declare-fun var919537 () (_ BitVec 64))
(declare-fun temp8008_15 () (_ BitVec 64))
(declare-fun temp8008_16 () (_ BitVec 64))
(declare-fun var919591 () (_ BitVec 64))
(declare-fun var919501 () (_ BitVec 64))
(declare-fun var67216 () (_ BitVec 64))
(declare-fun var67220 () (_ BitVec 64))
(declare-fun var1312817 () (_ BitVec 64))
(declare-fun var1446194 () (_ BitVec 64))
(declare-fun temp8008_17 () (_ BitVec 64))
(declare-fun var1508708 () (_ BitVec 64))
(declare-fun var1508716 () (_ BitVec 64))
(declare-fun temp8008_19 () (_ BitVec 64))
(declare-fun temp8008_18 () (_ BitVec 64))
(declare-fun temp8008_21 () (_ BitVec 64))
(declare-fun temp8008_20 () (_ BitVec 64))
(assert (= temp8008_2 #x0000000000000000))
(assert (= temp8008_1 temp8008_2))
(assert (= temp8008_3 #x0000000000000001))
(assert (= var590537
   (ite (bvslt ARGNAME_group_NAMEEND temp8008_3)
        #x0000000000000001
        #x0000000000000000)))
(assert (= temp8008_4 #x0000000000000000))
(assert (= var590537 temp8008_4))
(assert (= var590568 (bvsmod ARGNAME_C_NAMEEND ARGNAME_group_NAMEEND)))
(assert (= temp8008_5 #x0000000000000000))
(assert (= var590569
   (ite (= var590568 temp8008_5) #x0000000000000001 #x0000000000000000)))
(assert (= temp8008_6 #x0000000000000001))
(assert (= var590569 temp8008_6))
(assert (= temp8008_7 #x0000000000000001))
(assert (= var590610
   (ite (= ARGNAME_weight_NAMEEND_DIM temp8008_7)
        #x0000000000000001
        #x0000000000000000)))
(assert (= temp8008_8 #x0000000000000001))
(assert (= var590610 temp8008_8))
(assert (= var590615
   (ite (= ARGNAME_weight_NAMEEND_NUMELEMENT ARGNAME_C_NAMEEND)
        #x0000000000000001
        #x0000000000000000)))
(assert (= temp8008_9 #x0000000000000001))
(assert (= var590615 temp8008_9))
(assert (= temp8008_10 #x0000000000000000))
(assert (= var919503 temp8008_10))
(assert (= temp8008_11 #x0000000000000002))
(assert (= var1184882 temp8008_11))
(assert (= temp8008_12 #x0000000000000001))
(assert (= var1246564 temp8008_12))
(assert (= temp8008_13 #x0000000000000000))
(assert (= var919503 temp8008_13))
(assert (= temp8008_14 #x0000000000000000))
(assert (= var919537 temp8008_14))
(assert (= temp8008_15 #x0000000000000000))
(assert (= var919537 temp8008_15))
(assert (= temp8008_16 #x0000000000000000))
(assert (= var919591 temp8008_16))
(assert (= var919501 var919591))
(assert (= var67216 var919501))
(assert (= var67220 var67216))
(assert (= var1312817 var67220))
(assert (= var1446194 var1312817))
(assert (= temp8008_17 #x0000000000000001))
(assert (= var1508708 temp8008_17))
(assert (= var1508716 var1508708))
(assert (= temp8008_19 #x0000000000000002))
(assert (= temp8008_18 temp8008_19))
(assert (= temp8008_21 #x0000000000000002))
(assert (= temp8008_20 temp8008_21))
(model-add temp8008_2 () (_ BitVec 64) #x0000000000000000)
(model-add temp8008_1 () (_ BitVec 64) #x0000000000000000)
(model-add temp8008_3 () (_ BitVec 64) #x0000000000000001)
(model-add temp8008_4 () (_ BitVec 64) #x0000000000000000)
(model-add var590537 () (_ BitVec 64) #x0000000000000000)
(model-del k!0)
(model-add ARGNAME_group_NAMEEND
           ()
           (_ BitVec 64)
           (ite (or k!0 (= #x0000000000000001 #x8000000000000000))
                #x0000000000000001
                (bvsub #x0000000000000001 #x0000000000000001)))






